(set-logic ALL)
(declare-const GEN1 Int)
(declare-const GEN2 Int)
(declare-const GEN3 Int)
(declare-const GEN4 Int)
(declare-const GEN5 Int)
(declare-const BAV6 Bool)
(declare-const BAV7 Bool)
(declare-const BAV8 Bool)
(declare-const BAV9 Bool)
(declare-const BAV10 Bool)
(declare-const BAV11 Bool)
(declare-const BAV12 Bool)
(declare-const BAV13 Bool)
(declare-fun a () Int)
(declare-fun b () Int)
(assert (xor (> a GEN1) (not (and (ite (= a b) (> (* GEN2 a b) GEN3) true) (> (* a a) GEN4)))))
(assert (= a b))
(assert (> (* a b) GEN5))
(assert (= BAV6 (xor (> a GEN1) (not (and (ite (= a b) (> (* GEN2 a b) GEN3) true) (> (* a a) GEN4))))))
(assert (= BAV7 (> a GEN1)))
(assert (= BAV8 (and (ite (= a b) (> (* GEN2 a b) GEN3) true) (> (* a a) GEN4))))
(assert (= BAV9 (= a b)))
(assert (= BAV10 (> (* GEN2 a b) GEN3)))
(assert (= BAV11 (> (* a a) GEN4)))
(assert (= BAV12 (= a b)))
(assert (= BAV13 (> (* a b) GEN5)))
(check-sat)